param N := 3 ;

param R: 1 2 3 :=
1	0	0.1	0.1
2	0.1	0	0.1
3	0.1	0.1	0
;

param X: 1 2 3 :=
1	0	0.05	0.0
2	0.05	0	0.05
3	0.05	0.05	0.05
;

param p0 := 1 0.0 2 0.2 3 0.1;


param q0 := 1 0.00 2 0.02 3 0.02;
